Traveling Salesman Problem/TSP_generados/Aleatorio1620390995_12.tsp
NAME: Aleatorio1620390995_12.tsp
COMMENT: Randomly generated scenario
TYPE: TSP
DIMENSION: 12
EDGE_WEIGHT_TYPE: ATT
NODE_COORD_SECTION
1 15.88 8.82
2 41.76 13.56
3 37.59 21.58
4 17.14 36.76
5 37.91 14.15
6 36.94 3.48
7 26.85 21.67
8 10.54 1.02
9 14.72 35.95
10 47.36 11.27
11 41.97 43.27
12 9.46 23.24
