Traveling Salesman Problem/TSP_generados/Aleatorio1620390995_12.opt.tour
NAME: Aleatorio1620390995_12.opt.tour
COMMENT: Optimal solution for Aleatorio1620390995_12 (161.22687505800266)
TYPE: TOUR
DIMENSION: 12
TOUR_SECTION
1 8 6 10 2 5 3 7 11 4 9 12
-1
EOF
